(set-logic HORN)
(declare-fun state (Int (Array Int Int) (Array Int Int) (Array Int Int) (Array Int Int) Int Int (Array Int Int) (Array Int Int) Int Int Int Int Int Int Int Int Int Int Int Int Int Int Int Int Int Int Int Int Bool Bool Bool Bool Bool (Array Int Int)) Bool)
(assert (forall ((|A_18| Int) (|B_18| (Array Int Int)) (|C_18| (Array Int Int)) (|D_18| (Array Int Int)) (|E_18| (Array Int Int)) (|F_18| Int) (|G_18| Int) (|H_18| (Array Int Int)) (|I_18| (Array Int Int)) (|J_18| Int) (|K_18| Int) (|L_18| Int) (|M_18| Int) (|N_18| Int) (|O_18| Int) (|P_18| Int) (|Q_18| Int) (|R_18| Int) (|S_18| Int) (|T_18| Int) (|U_18| Int) (|V_18| Int) (|W_18| Int) (|X_18| Int) (|Y_18| Int) (|Z_18| Int) (|A1_18| Int) (|B1_18| Int) (|C1_18| Int) (|E1_10| Bool) (|.loc.5| Bool) (|.loc.6| Bool) (|.loc.7| Bool) (|.loc.8| Bool) (|E1_0| (Array Int Int)) (|.x.540| Int) (|.x.538| (Array Int Int)) (|.x.536| Int) (|.x.534| (Array Int Int)) (|.x.530| Int) (|.x.532| (Array Int Int)) (|.x.531| (Array Int Int)) (|D1_18| Bool) (|.x.542| Int) (|.x.548| Int) (|.x.549| Int) (|.x.552| Int) (|.x.553| Int) (|.x.554| Int) (|.loc.10| Bool) (|.x.555| Int) (|.x.544| Int) (|.x.556| Int) (|.x.557| Int) (|.loc.12| Bool) (|.loc.9| Bool) (|.loc.11| Bool) (|.x.551| Int) (|.x.550| Int) (|.x.545| Int) (|.x.533| (Array Int Int)) (|.x.546| Int) (|.x.558| Int) (|.x.547| Int) (|.x.541| Int) (|.x.543| Int) (|.x.539| Int) (|.x.535| Int) (|.x.537| (Array Int Int)) (|.xtv.1| (Array Int Int))) (=> (and (and (and (and .loc.5 (not .loc.6)) (not .loc.7)) (not .loc.8)) (and (and (and (and (and (= D_18 E_18) (not E1_10)) (= F_18 G_18)) (= J_18 K_18)) (= H_18 I_18)) (= B_18 C_18))) (state |A_18| |B_18| |C_18| |D_18| |E_18| |F_18| |G_18| |H_18| |I_18| |J_18| |K_18| |L_18| |M_18| |N_18| |O_18| |P_18| |Q_18| |R_18| |S_18| |T_18| |U_18| |V_18| |W_18| |X_18| |Y_18| |Z_18| |A1_18| |B1_18| |C1_18| |E1_10| |.loc.5| |.loc.6| |.loc.7| |.loc.8| |E1_0|))))
(assert (forall ((|A_18| Int) (|B_18| (Array Int Int)) (|C_18| (Array Int Int)) (|D_18| (Array Int Int)) (|E_18| (Array Int Int)) (|F_18| Int) (|G_18| Int) (|H_18| (Array Int Int)) (|I_18| (Array Int Int)) (|J_18| Int) (|K_18| Int) (|L_18| Int) (|M_18| Int) (|N_18| Int) (|O_18| Int) (|P_18| Int) (|Q_18| Int) (|R_18| Int) (|S_18| Int) (|T_18| Int) (|U_18| Int) (|V_18| Int) (|W_18| Int) (|X_18| Int) (|Y_18| Int) (|Z_18| Int) (|A1_18| Int) (|B1_18| Int) (|C1_18| Int) (|E1_10| Bool) (|.loc.5| Bool) (|.loc.6| Bool) (|.loc.7| Bool) (|.loc.8| Bool) (|E1_0| (Array Int Int)) (|.x.540| Int) (|.x.538| (Array Int Int)) (|.x.536| Int) (|.x.534| (Array Int Int)) (|.x.530| Int) (|.x.532| (Array Int Int)) (|.x.531| (Array Int Int)) (|D1_18| Bool) (|.x.542| Int) (|.x.548| Int) (|.x.549| Int) (|.x.552| Int) (|.x.553| Int) (|.x.554| Int) (|.loc.10| Bool) (|.x.555| Int) (|.x.544| Int) (|.x.556| Int) (|.x.557| Int) (|.loc.12| Bool) (|.loc.9| Bool) (|.loc.11| Bool) (|.x.551| Int) (|.x.550| Int) (|.x.545| Int) (|.x.533| (Array Int Int)) (|.x.546| Int) (|.x.558| Int) (|.x.547| Int) (|.x.541| Int) (|.x.543| Int) (|.x.539| Int) (|.x.535| Int) (|.x.537| (Array Int Int)) (|.xtv.1| (Array Int Int))) (=> (and (state |A_18| |B_18| |C_18| |D_18| |E_18| |F_18| |G_18| |H_18| |I_18| |J_18| |K_18| |L_18| |M_18| |N_18| |O_18| |P_18| |Q_18| |R_18| |S_18| |T_18| |U_18| |V_18| |W_18| |X_18| |Y_18| |Z_18| |A1_18| |B1_18| |C1_18| |E1_10| |.loc.5| |.loc.6| |.loc.7| |.loc.8| |E1_0|) (let ((.def_45 (not .loc.6))) (let ((.def_47 (not .loc.7))) (let ((.def_49 (not .loc.8))) (let ((.def_81 (= B_18 .x.531))) (let ((.def_85 (= M_18 .x.542))) (let ((.def_88 (= S_18 .x.548))) (let ((.def_91 (= T_18 .x.549))) (let ((.def_94 (= W_18 .x.552))) (let ((.def_97 (= X_18 .x.553))) (let ((.def_100 (= Y_18 .x.554))) (let ((.def_102 (not .loc.5))) (let ((.def_114 (= E1_10 D1_18))) (let ((.def_123 (= O_18 0))) (let ((.def_125 (and .def_81 .def_85))) (let ((.def_130 (and .def_100 (and .def_97 (and .def_94 (and .def_91 (and .def_88 .def_125))))))) (let ((.def_135 (not .loc.10))) (let ((.def_141 (= Z_18 .x.555))) (let ((.def_143 (= O_18 .x.544))) (let ((.def_146 (= A1_18 .x.556))) (let ((.def_149 (= B1_18 .x.557))) (let ((.def_154 (not .loc.9))) (let ((.def_157 (not .loc.11))) (let ((.def_168 (select D_18 X_18))) (let ((.def_172 (select D_18 T_18))) (let ((.def_177 (<= 100000 U_18))) (let ((.def_192 (not .loc.12))) (let ((.def_197 (= V_18 .x.551))) (let ((.def_199 (= U_18 .x.550))) (let ((.def_207 (and .def_125 .def_143))) (let ((.def_209 (and .def_91 (and .def_88 .def_207)))) (let ((.def_245 (and E1_10 .def_81))) (let ((.def_257 (and .def_149 (and .def_146 (and .def_141 (and .def_100 (and .def_97 (and .def_94 (and .def_197 (and .def_199 (and .def_91 (and .def_88 (and .def_143 (and .def_85 .def_245)))))))))))))) (let ((.def_276 (and .def_149 (and .def_146 (and .def_141 (and .def_100 (and .def_97 (and .def_94 (and .def_197 (and .def_199 .def_209)))))))))) (let ((.def_298 (<= 100000 Q_18))) (let ((.def_302 (and .def_45 (and .def_102 (and .loc.7 .def_276))))) (let ((.def_312 (= P_18 .x.545))) (let ((.def_314 (= D_18 .x.533))) (let ((.def_317 (= Q_18 .x.546))) (let ((.def_320 (= C1_18 .x.558))) (let ((.def_352 (and .def_312 (and .def_143 (and .def_85 (and .def_81 .def_314)))))) (let ((.def_364 (and .def_320 (and .def_149 (and .def_146 (and .def_141 (and .def_100 (and .def_97 (and .def_94 (and .def_197 (and .def_199 (and .def_91 (and .def_88 (and .def_317 .def_352)))))))))))))) (let ((.def_391 (and .def_320 (and .def_149 (and .def_146 (and .def_141 (and .def_100 (and .def_97 (and .def_94 (and .def_197 (and .def_199 (and .def_91 (and .def_88 (and .def_317 (and .def_312 (and .def_143 (and .def_85 (and .def_245 .def_314)))))))))))))))))) (let ((.def_436 (<= 100000 N_18))) (let ((.def_539 (store E1_0 .x.549 1))) (and (and (= K_18 .x.540) (and (= I_18 .x.538) (and (= G_18 .x.536) (and (= E_18 .x.534) (and (= A_18 .x.530) (= C_18 .x.532)))))) (or (and (or (and (or (or (or (or (or (or (and (or (or (or (or (or (or (and (or (and (or (and (or (and (and (and (and (and (and (and (and .def_81 D1_18) .def_85) .def_88) .def_91) .def_94) .def_97) .def_100) .def_102) (and (or E1_10 (and (= .x.554 0) (= .x.531 (store (store B_18 T_18 0) X_18 0)))) (and (and .loc.5 (or D1_18 (= .x.548 .x.554))) .def_114))) (and (and .def_47 (and .loc.8 .def_45)) .loc.10)) (and (or E1_10 .def_123) (and .def_49 (and (and .def_114 (and .loc.7 (and .loc.6 (and .loc.5 .def_130)))) .def_135)))) (and (and (and (and (and (and .def_141 .def_143) .def_146) .def_149) .loc.12) .def_154) .def_157)) (and (or E1_10 (and (= .x.555 .x.544) (and (= .x.555 (ite (= .x.556 .x.557) 1 0)) (and (= .x.556 (select .def_168 (+ M_18 (* 4 U_18)))) (and (= .x.557 (select .def_172 (+ (* 4 U_18) W_18))) (not .def_177)))))) (and (and .def_49 (and .def_114 (and .loc.11 (and .loc.10 (and .loc.9 (and .def_102 (and .loc.7 (and .loc.6 .def_130)))))))) .def_192))) (and .def_197 .def_199)) (and (or D1_18 (= (+ U_18 (* (- 1) .x.550)) (- 1))) (and .def_192 (and .def_49 (and .def_114 (and .def_154 (and .loc.11 (and .loc.10 (and .def_47 (and .def_45 (and .def_102 (and .def_141 (and .def_100 (and .def_97 (and .def_94 .def_209))))))))))))))) (and (or E1_10 (= .x.550 0)) (and .def_192 (and .def_49 (and .def_114 (and .def_154 (and .loc.11 (and .loc.10 (and .def_45 (and .loc.7 (and .loc.5 (and .def_149 (and .def_146 (and .def_141 (and .def_100 (and .def_97 (and .def_94 (and .def_197 .def_209)))))))))))))))))) (and .def_49 (and .def_135 (and .def_114 (and .def_157 (and .loc.12 (and .loc.9 (and .def_102 (and .loc.7 (and .loc.6 .def_257)))))))))) (and (or E1_10 .def_177) (and .def_49 (and .def_135 (and .def_114 (and .def_157 (and .loc.12 (and .loc.9 (and .def_102 (and .loc.7 (and .loc.6 .def_276))))))))))) (and .def_192 (and .def_49 (and .def_135 (and .def_114 (and .loc.11 (and .loc.9 (and .def_45 (and .def_102 (and .loc.7 .def_257)))))))))) (and (or E1_10 .def_298) (and .def_192 (and .def_49 (and .def_135 (and .def_114 (and .loc.11 (and .loc.9 .def_302)))))))) (and (and (and .def_312 .def_314) .def_317) .def_320)) (and (or E1_10 (and (= .x.533 (store D_18 X_18 (store .def_168 (+ M_18 (* 4 Q_18)) (select .def_172 (+ (* 4 Q_18) W_18))))) (not .def_298))) (and (or D1_18 (= (+ Q_18 (* (- 1) .x.546)) (- 1))) (and .def_192 (and .def_49 (and .def_135 (and .def_114 (and .def_154 (and .loc.11 .def_302))))))))) (and (or E1_10 (not .def_123)) (and .def_192 (and .def_49 (and .def_135 (and .def_114 (and .def_157 (and .def_154 (and .loc.7 (and .loc.6 (and .loc.5 .def_364))))))))))) (and .def_192 (and .def_135 (and .def_114 (and .def_157 (and .def_154 (and .def_47 (and .def_45 (and .def_102 (and .loc.8 .def_391)))))))))) (and (or E1_10 (= .x.546 0)) (and .def_192 (and .def_49 (and .def_135 (and .def_114 (and .def_154 (and .loc.11 (and .def_47 (and .loc.6 (and .loc.5 (and .def_320 (and .def_149 (and .def_146 (and .def_141 (and .def_100 (and .def_97 (and .def_94 (and .def_197 (and .def_199 (and .def_91 (and .def_88 .def_352)))))))))))))))))))))) (and .def_192 (and .def_49 (and .def_114 (and .def_157 (and .loc.10 (and .loc.9 (and .def_47 (and .def_102 (and .loc.6 .def_391)))))))))) (and (or E1_10 .def_436) (and .def_192 (and .def_49 (and .def_114 (and .def_157 (and .loc.10 (and .loc.9 (and .def_47 (and .def_102 (and .loc.6 .def_364))))))))))) (and (= R_18 .x.547) (and (= L_18 .x.541) (= N_18 .x.543)))) (and (or E1_10 (and (= .x.533 (store D_18 T_18 (store .def_172 (+ (* 4 N_18) W_18) L_18))) (and (<= (- 2147483648) L_18) (and (<= L_18 2147483647) (not .def_436))))) (and (or D1_18 (= (+ N_18 (* (- 1) .x.543)) (- 1))) (and .def_192 (and .def_49 (and .def_114 (and .def_157 (and .def_154 (and .loc.10 (and .def_47 (and .def_102 (and .loc.6 (and .def_320 (and .def_149 (and .def_146 (and .def_141 (and .def_100 (and .def_97 (and .def_94 (and .def_197 (and .def_199 (and .def_91 (and .def_88 (and .def_317 (and .def_207 .def_312))))))))))))))))))))))))) (and (= J_18 .x.539) (and (= F_18 .x.535) (= H_18 .x.537)))) (and (or E1_10 (and (and (= .x.539 0) (= .x.535 0)) (= E1_0 (store B_18 0 0)))) (and (or D1_18 (and (and (and (and (and (and (and (and (and (and (not (<= .x.530 .x.549)) (not (<= .x.530 .x.553))) (= .x.542 0)) (= .x.543 0)) (= .x.552 0)) (not (= .x.553 0))) (not (= .x.549 0))) (= (select E1_0 .x.549) 0)) (= (select .def_539 .x.553) 0)) (= .x.537 (store (store H_18 .x.549 400000) .x.553 400000))) (= .x.531 (store .def_539 .x.553 1)))) (and .def_192 (and .def_49 (and .def_114 (and .def_157 (and .def_154 (and .loc.10 (and .def_47 (and .def_45 (and .loc.5 (and .def_141 (and .def_88 (and .def_143 .def_314))))))))))))))))))))))))))))))))))))))))))))))))))))))))))))) (state |.x.530| |.x.531| |.x.532| |.x.533| |.x.534| |.x.535| |.x.536| |.x.537| |.x.538| |.x.539| |.x.540| |.x.541| |.x.542| |.x.543| |.x.544| |.x.545| |.x.546| |.x.547| |.x.548| |.x.549| |.x.550| |.x.551| |.x.552| |.x.553| |.x.554| |.x.555| |.x.556| |.x.557| |.x.558| |D1_18| |.loc.9| |.loc.10| |.loc.11| |.loc.12| |.xtv.1|))))
(assert (forall ((|A_18| Int) (|B_18| (Array Int Int)) (|C_18| (Array Int Int)) (|D_18| (Array Int Int)) (|E_18| (Array Int Int)) (|F_18| Int) (|G_18| Int) (|H_18| (Array Int Int)) (|I_18| (Array Int Int)) (|J_18| Int) (|K_18| Int) (|L_18| Int) (|M_18| Int) (|N_18| Int) (|O_18| Int) (|P_18| Int) (|Q_18| Int) (|R_18| Int) (|S_18| Int) (|T_18| Int) (|U_18| Int) (|V_18| Int) (|W_18| Int) (|X_18| Int) (|Y_18| Int) (|Z_18| Int) (|A1_18| Int) (|B1_18| Int) (|C1_18| Int) (|E1_10| Bool) (|.loc.5| Bool) (|.loc.6| Bool) (|.loc.7| Bool) (|.loc.8| Bool) (|E1_0| (Array Int Int)) (|.x.540| Int) (|.x.538| (Array Int Int)) (|.x.536| Int) (|.x.534| (Array Int Int)) (|.x.530| Int) (|.x.532| (Array Int Int)) (|.x.531| (Array Int Int)) (|D1_18| Bool) (|.x.542| Int) (|.x.548| Int) (|.x.549| Int) (|.x.552| Int) (|.x.553| Int) (|.x.554| Int) (|.loc.10| Bool) (|.x.555| Int) (|.x.544| Int) (|.x.556| Int) (|.x.557| Int) (|.loc.12| Bool) (|.loc.9| Bool) (|.loc.11| Bool) (|.x.551| Int) (|.x.550| Int) (|.x.545| Int) (|.x.533| (Array Int Int)) (|.x.546| Int) (|.x.558| Int) (|.x.547| Int) (|.x.541| Int) (|.x.543| Int) (|.x.539| Int) (|.x.535| Int) (|.x.537| (Array Int Int)) (|.xtv.1| (Array Int Int))) (=> (state |A_18| |B_18| |C_18| |D_18| |E_18| |F_18| |G_18| |H_18| |I_18| |J_18| |K_18| |L_18| |M_18| |N_18| |O_18| |P_18| |Q_18| |R_18| |S_18| |T_18| |U_18| |V_18| |W_18| |X_18| |Y_18| |Z_18| |A1_18| |B1_18| |C1_18| |E1_10| |.loc.5| |.loc.6| |.loc.7| |.loc.8| |E1_0|) (not (and E1_10 (and .loc.8 (and (not .loc.7) (and .loc.6 (not .loc.5)))))))))
(check-sat)
